40
    48    38    51    33    88     6    12    88    83    55    61    47    44    32    62    21    13    37    57    25    57    24    67    77    73     1    88    98    86    26    98    11    49    13    51    43    42    27    79    25
     4     3     5     8     9     3     8     3    10     1     2    10     6     3     2     5     5     8     7     2     4     5     7     7     6     4     9     7     5     5     1     9     2     3     4     4     7     8     4     9
  1443  1541  1612  1229  1652  1580  1612  1310  1555   975  1395  1652  1522   837  1425  1406   997  1398  1699  1366   715  1681   763  1024   852   917  1117   860   914  1693  1277  1722  1370   934  1176  1311  1226  1169  1181  1686
